4 10 18 14 6 11 0 8 15 17 12 9 19 16 5 2 13 7 3 1  
4 15 18 10 14 6 7 8 11 17 12 5 9 13 1 0 2 19 16 3  
4 10 18 14 6 11 0 8 15 17 12 9 19 16 5 13 7 2 1 3  
4 10 18 14 6 11 17 8 15 0 12 9 19 16 5 13 7 2 1 3  
4 10 18 14 6 11 0 8 15 17 12 9 19 16 5 13 7 2 1 3  
4 15 18 10 14 6 7 8 11 17 12 5 9 13 1 0 2 19 16 3  
4 10 18 14 6 11 17 8 15 0 12 9 19 16 5 7 3 1 2 13  
4 10 18 14 6 11 17 8 15 0 12 9 19 16 5 7 3 1 2 13  
4 10 18 14 6 11 0 8 15 17 12 16 5 9 13 7 2 1 3 19  
4 10 18 14 15 6 11 0 8 12 5 17 1 7 2 9 13 19 16 3  
4 10 18 14 6 11 0 8 15 17 12 9 19 16 5 13 1 7 2 3  
4 10 18 14 6 11 0 8 15 17 12 9 19 16 5 13 1 7 2 3  
4 10 18 14 6 7 8 11 17 12 15 0 5 9 13 16 2 1 3 19  
4 10 18 14 6 11 0 8 15 17 12 9 13 16 5 7 2 1 3 19  
4 10 18 14 6 11 0 8 15 17 12 9 19 16 5 7 3 1 2 13  
4 10 18 14 6 7 8 11 17 12 9 15 2 0 13 16 1 5 3 19  
4 10 18 14 6 11 0 8 15 17 12 16 5 9 13 2 7 1 3 19  
4 10 18 14 6 15 17 8 11 0 12 9 19 16 5 2 13 7 1 3  
4 10 18 14 6 11 0 8 15 17 12 16 5 9 13 7 2 1 3 19  
4 10 18 14 6 11 0 8 15 17 12 9 13 16 1 5 2 7 3 19  
4 10 18 14 6 11 0 8 15 17 12 9 19 16 5 7 3 1 2 13  
4 10 18 14 6 11 17 8 15 0 12 9 19 16 5 3 1 7 2 13  
4 10 18 14 6 7 11 8 17 12 9 15 2 0 13 16 1 5 3 19  
4 10 18 14 6 11 0 8 15 7 17 12 5 9 13 16 2 1 3 19  
4 10 18 14 6 7 8 11 17 12 9 15 0 19 16 5 3 13 2 1  
4 10 18 14 6 11 17 8 15 12 0 5 2 13 16 9 1 7 3 19  
4 10 18 14 6 11 17 8 15 0 12 9 19 16 5 13 7 2 1 3  
4 10 18 14 6 11 0 8 15 17 12 16 9 1 5 7 13 2 3 19  
4 10 18 14 6 11 0 8 15 17 12 9 19 16 5 7 3 1 2 13  
4 15 18 10 14 6 7 8 11 17 12 5 9 13 2 0 1 19 16 3  
4 10 18 14 6 11 7 8 15 0 12 9 13 2 16 5 17 1 3 19  
4 10 18 14 6 11 17 8 15 12 0 9 19 16 5 3 1 7 2 13  
4 10 18 14 6 11 0 8 15 17 12 2 5 9 13 16 1 7 3 19  
4 10 18 14 6 11 0 8 15 17 16 12 5 9 13 2 7 1 3 19  
4 10 18 14 6 11 0 8 15 17 12 9 19 16 5 13 2 1 7 3  
4 10 18 14 6 11 0 8 15 17 12 2 5 9 13 16 1 7 3 19  
4 15 18 10 14 6 7 8 11 17 12 5 9 13 2 0 1 19 16 3  
4 10 18 15 14 6 11 17 8 12 5 0 1 7 2 9 13 19 16 3  
4 10 18 14 6 11 17 8 15 0 12 9 19 16 5 13 1 7 2 3  
4 10 18 14 6 11 17 8 15 0 12 9 13 16 5 1 2 7 3 19  
4 10 6 18 15 17 14 12 0 1 7 11 5 13 2 9 19 16 3 8  
4 10 18 14 6 7 8 11 17 12 9 15 2 5 13 0 1 19 3 16  
4 10 18 14 6 11 17 8 15 0 12 9 2 13 16 5 7 3 1 19  
4 10 18 14 6 7 8 11 17 12 9 15 0 19 16 5 2 3 1 13  
4 10 18 14 6 11 17 8 15 0 12 9 13 16 1 5 2 7 3 19  
4 10 18 14 6 11 17 8 15 12 0 9 19 16 5 3 1 7 2 13  
4 10 6 18 15 14 0 12 11 7 17 1 5 9 13 2 19 16 3 8  
4 10 18 14 6 11 0 8 15 17 12 16 9 1 7 5 13 2 3 19  
4 10 18 14 6 7 8 11 17 12 9 15 2 0 13 16 1 5 3 19  
4 10 6 18 15 14 0 12 11 7 17 1 5 9 13 2 19 16 3 8  
4 10 6 18 15 14 17 12 11 7 0 1 5 9 13 2 19 16 3 8  
4 10 6 18 15 14 7 11 12 0 17 1 5 9 13 2 19 16 3 8  
4 10 18 14 6 7 8 11 17 12 9 15 2 19 16 5 0 1 13 3  
4 10 18 14 6 11 7 8 15 0 12 9 13 16 5 2 17 1 3 19  
4 10 18 14 6 11 0 8 15 17 12 16 5 9 13 2 7 1 3 19  
4 10 18 14 6 11 17 8 15 0 12 9 13 16 5 19 1 7 2 3  
4 10 18 14 6 11 17 8 15 0 12 9 19 16 5 2 13 7 3 1  
4 10 18 14 6 11 17 8 15 0 12 9 19 16 5 2 13 7 3 1  
4 10 18 14 6 11 17 8 15 0 12 9 19 16 5 2 13 7 3 1  
4 15 18 10 14 6 17 12 0 1 11 5 7 13 2 9 19 16 3 8  
4 10 18 14 6 7 8 11 17 12 9 15 13 0 16 5 2 3 1 19  
4 10 18 14 6 11 0 8 15 17 12 9 13 16 1 5 2 7 3 19  
